1594034
2,45,65,13,54,1,12,42,32,56,40,5,19,49,23,60,29,25,30,41,6,64,11,66,26,55,34,46,43,7,67,38,31,22,52,33,57,18,10,14,44,53,37,62,39,51,35,68,17,27,9,58,15,8,36,50,28,59,16,63,21,3,61,24,47,20,4,48
